(declare-fun temp128731_1 () (_ BitVec 64))
(declare-fun temp128731_2 () (_ BitVec 64))
(declare-fun var77740 () (_ BitVec 64))
(declare-fun k!0 () Bool)
(declare-fun ARGNAME_filter_NAMEEND_DIM () (_ BitVec 64))
(declare-fun ARGNAME_data_format_NAMEEND_STRFMT () (_ BitVec 64))
(declare-fun temp128731_3 () (_ BitVec 64))
(declare-fun ARGNAME_out_backprop_NAMEEND_DIM () (_ BitVec 64))
(declare-fun var77770 () (_ BitVec 64))
(declare-fun temp128731_4 () (_ BitVec 64))
(declare-fun temp128731_5 () (_ BitVec 64))
(declare-fun ARGNAME_filter_NAMEEND_DIMSIZE
             ()
             (Array (_ BitVec 64) (_ BitVec 64)))
(declare-fun temp128731_6 () (_ BitVec 64))
(declare-fun temp128731_7 () (_ BitVec 64))
(declare-fun temp128731_8 () (_ BitVec 64))
(declare-fun temp128731_9 () (_ BitVec 64))
(declare-fun temp128731_10 () (_ BitVec 64))
(declare-fun temp128731_11 () (_ BitVec 64))
(declare-fun temp128731_12 () (_ BitVec 64))
(declare-fun temp128731_13 () (_ BitVec 64))
(declare-fun temp128731_14 () (_ BitVec 64))
(declare-fun temp128731_15 () (_ BitVec 64))
(declare-fun temp128731_16 () (_ BitVec 64))
(declare-fun temp128731_17 () (_ BitVec 64))
(declare-fun temp128731_18 () (_ BitVec 64))
(declare-fun var77799 () (_ BitVec 64))
(declare-fun temp128731_19 () (_ BitVec 64))
(declare-fun ARGNAME_out_backprop_NAMEEND_DIMSIZE
             ()
             (Array (_ BitVec 64) (_ BitVec 64)))
(declare-fun temp128731_20 () (_ BitVec 64))
(declare-fun temp128731_21 () (_ BitVec 64))
(declare-fun temp128731_22 () (_ BitVec 64))
(declare-fun temp128731_23 () (_ BitVec 64))
(declare-fun temp128731_24 () (_ BitVec 64))
(declare-fun temp128731_25 () (_ BitVec 64))
(declare-fun temp128731_26 () (_ BitVec 64))
(declare-fun temp128731_27 () (_ BitVec 64))
(declare-fun temp128731_28 () (_ BitVec 64))
(declare-fun temp128731_29 () (_ BitVec 64))
(declare-fun temp128731_30 () (_ BitVec 64))
(declare-fun temp128731_31 () (_ BitVec 64))
(declare-fun temp128731_32 () (_ BitVec 64))
(declare-fun var77832 () (_ BitVec 64))
(declare-fun temp128731_33 () (_ BitVec 64))
(declare-fun temp128731_34 () (_ BitVec 64))
(declare-fun var77833 () (_ BitVec 64))
(declare-fun var77834 () (_ BitVec 64))
(declare-fun temp128731_35 () (_ BitVec 64))
(declare-fun temp128731_36 () (_ BitVec 64))
(declare-fun var275510 () (_ BitVec 64))
(declare-fun temp128731_37 () (_ BitVec 64))
(declare-fun var275528 () (_ BitVec 64))
(declare-fun temp128731_38 () (_ BitVec 64))
(declare-fun temp128731_39 () (_ BitVec 64))
(declare-fun var406582 () (_ BitVec 64))
(declare-fun temp128731_40 () (_ BitVec 64))
(declare-fun var406600 () (_ BitVec 64))
(declare-fun temp128731_41 () (_ BitVec 64))
(declare-fun temp128731_43 () (_ BitVec 64))
(declare-fun temp128731_42 () (_ BitVec 64))
(declare-fun temp128731_44 () (_ BitVec 64))
(declare-fun var603190 () (_ BitVec 64))
(declare-fun temp128731_45 () (_ BitVec 64))
(declare-fun var603208 () (_ BitVec 64))
(declare-fun temp128731_46 () (_ BitVec 64))
(declare-fun temp128731_48 () (_ BitVec 64))
(declare-fun temp128731_47 () (_ BitVec 64))
(declare-fun temp128731_50 () (_ BitVec 64))
(declare-fun temp128731_49 () (_ BitVec 64))
(declare-fun temp128731_52 () (_ BitVec 64))
(declare-fun temp128731_51 () (_ BitVec 64))
(declare-fun temp128731_54 () (_ BitVec 64))
(declare-fun temp128731_53 () (_ BitVec 64))
(declare-fun temp128731_56 () (_ BitVec 64))
(declare-fun temp128731_55 () (_ BitVec 64))
(declare-fun temp128731_58 () (_ BitVec 64))
(declare-fun temp128731_57 () (_ BitVec 64))
(declare-fun temp128731_60 () (_ BitVec 64))
(declare-fun temp128731_59 () (_ BitVec 64))
(declare-fun temp128731_61 () (_ BitVec 64))
(declare-fun var1057842 () (_ BitVec 64))
(declare-fun temp128731_62 () (_ BitVec 64))
(declare-fun var1057843 () (_ BitVec 64))
(declare-fun var1057844 () (_ BitVec 64))
(declare-fun var1057840 () (_ BitVec 64))
(declare-fun var730076 () (_ BitVec 64))
(declare-fun temp128731_63 () (_ BitVec 64))
(declare-fun var1123378 () (_ BitVec 64))
(declare-fun temp128731_64 () (_ BitVec 64))
(declare-fun var1123379 () (_ BitVec 64))
(declare-fun var1123380 () (_ BitVec 64))
(declare-fun var1123376 () (_ BitVec 64))
(declare-fun var730083 () (_ BitVec 64))
(declare-fun temp128731_65 () (_ BitVec 64))
(declare-fun var1188914 () (_ BitVec 64))
(declare-fun temp128731_66 () (_ BitVec 64))
(declare-fun var1188915 () (_ BitVec 64))
(declare-fun var1188916 () (_ BitVec 64))
(declare-fun var1188912 () (_ BitVec 64))
(declare-fun var730088 () (_ BitVec 64))
(declare-fun var78095 () (_ BitVec 64))
(declare-fun temp128731_67 () (_ BitVec 64))
(declare-fun temp128731_68 () (_ BitVec 64))
(declare-fun var78184 () (_ BitVec 64))
(assert (or (= ARGNAME_data_format_NAMEEND_STRFMT #x0000000000000000)
    (= ARGNAME_data_format_NAMEEND_STRFMT #x0000000000000001)
    (= ARGNAME_data_format_NAMEEND_STRFMT #x0000000000000002)
    (= ARGNAME_data_format_NAMEEND_STRFMT #x0000000000000003)
    (= ARGNAME_data_format_NAMEEND_STRFMT #x0000000000000004)
    (= ARGNAME_data_format_NAMEEND_STRFMT #x0000000000000005)))
(assert (= temp128731_1 #x0000000000000005))
(assert (= var77740
   (ite (= ARGNAME_filter_NAMEEND_DIM temp128731_1)
        #x0000000000000001
        #x0000000000000000)))
(assert (= temp128731_2 #x0000000000000001))
(assert (= var77740 temp128731_2))
(assert (= temp128731_3 #x0000000000000005))
(assert (= var77770
   (ite (= ARGNAME_out_backprop_NAMEEND_DIM temp128731_3)
        #x0000000000000001
        #x0000000000000000)))
(assert (= temp128731_4 #x0000000000000001))
(assert (= var77770 temp128731_4))
(assert (= temp128731_5 #x0000000000000000))
(assert (= temp128731_6 (select ARGNAME_filter_NAMEEND_DIMSIZE temp128731_5)))
(assert (= temp128731_7 #x0000000000000001))
(assert (= temp128731_8 (select ARGNAME_filter_NAMEEND_DIMSIZE temp128731_7)))
(assert (= temp128731_9 #x0000000000000002))
(assert (= temp128731_10 (select ARGNAME_filter_NAMEEND_DIMSIZE temp128731_9)))
(assert (= temp128731_11 #x0000000000000003))
(assert (= temp128731_12 (select ARGNAME_filter_NAMEEND_DIMSIZE temp128731_11)))
(assert (= temp128731_13 #x0000000000000004))
(assert (= temp128731_14 (select ARGNAME_filter_NAMEEND_DIMSIZE temp128731_13)))
(assert (= temp128731_15 #x0000000000000005))
(assert (= temp128731_16 (select ARGNAME_filter_NAMEEND_DIMSIZE temp128731_15)))
(assert (= temp128731_17 #x0000000000000003))
(assert (= temp128731_18 (select ARGNAME_filter_NAMEEND_DIMSIZE temp128731_17)))
(assert (= var77799 temp128731_18))
(assert (= temp128731_19 #x0000000000000000))
(assert (= temp128731_20 (select ARGNAME_out_backprop_NAMEEND_DIMSIZE temp128731_19)))
(assert (= temp128731_21 #x0000000000000001))
(assert (= temp128731_22 (select ARGNAME_out_backprop_NAMEEND_DIMSIZE temp128731_21)))
(assert (= temp128731_23 #x0000000000000002))
(assert (= temp128731_24 (select ARGNAME_out_backprop_NAMEEND_DIMSIZE temp128731_23)))
(assert (= temp128731_25 #x0000000000000003))
(assert (= temp128731_26 (select ARGNAME_out_backprop_NAMEEND_DIMSIZE temp128731_25)))
(assert (= temp128731_27 #x0000000000000004))
(assert (= temp128731_28 (select ARGNAME_out_backprop_NAMEEND_DIMSIZE temp128731_27)))
(assert (= temp128731_29 #x0000000000000005))
(assert (= temp128731_30 (select ARGNAME_out_backprop_NAMEEND_DIMSIZE temp128731_29)))
(assert (= temp128731_31 #x0000000000000004))
(assert (= temp128731_32 (select ARGNAME_out_backprop_NAMEEND_DIMSIZE temp128731_31)))
(assert (= var77832 temp128731_32))
(assert (= temp128731_33 #x0000000000000004))
(assert (= temp128731_34 (select ARGNAME_filter_NAMEEND_DIMSIZE temp128731_33)))
(assert (= var77833 temp128731_34))
(assert (= var77834 (ite (= var77832 var77833) #x0000000000000001 #x0000000000000000)))
(assert (= temp128731_35 #x0000000000000001))
(assert (= var77834 temp128731_35))
(assert (= temp128731_36 #x0000000000000001))
(assert (= var275510 temp128731_36))
(assert (= temp128731_37 #x0000000000000001))
(assert (= var275528
   (ite (bvslt var275510 temp128731_37) #x0000000000000001 #x0000000000000000)))
(assert (= temp128731_38 #x0000000000000000))
(assert (= var275528 temp128731_38))
(assert (= temp128731_39 #x0000000000000001))
(assert (= var406582 temp128731_39))
(assert (= temp128731_40 #x0000000000000001))
(assert (= var406600
   (ite (bvslt var406582 temp128731_40) #x0000000000000001 #x0000000000000000)))
(assert (= temp128731_41 #x0000000000000000))
(assert (= var406600 temp128731_41))
(assert (= temp128731_43 #x0000000000000000))
(assert (= temp128731_42 temp128731_43))
(assert (= temp128731_44 #x0000000000000001))
(assert (= var603190 temp128731_44))
(assert (= temp128731_45 #x0000000000000001))
(assert (= var603208
   (ite (bvslt var603190 temp128731_45) #x0000000000000001 #x0000000000000000)))
(assert (= temp128731_46 #x0000000000000000))
(assert (= var603208 temp128731_46))
(assert (= temp128731_48 #x0000000000000000))
(assert (= temp128731_47 temp128731_48))
(assert (= temp128731_50 #x00000000000000ff))
(assert (= temp128731_49 temp128731_50))
(assert (= temp128731_52 #x00000000000000ff))
(assert (= temp128731_51 temp128731_52))
(assert (= temp128731_54 #x00000000000000ff))
(assert (= temp128731_53 temp128731_54))
(assert (= temp128731_56 #x0000000000000000))
(assert (= temp128731_55 temp128731_56))
(assert (= temp128731_58 #x0000000000000000))
(assert (= temp128731_57 temp128731_58))
(assert (= temp128731_60 #x0000000000000000))
(assert (= temp128731_59 temp128731_60))
(assert (= temp128731_61 #x0000000000008000))
(assert (= var1057842 temp128731_61))
(assert (= temp128731_62 #x0000000000000001))
(assert (= var1057843
   (ite (bvslt temp128731_59 temp128731_62)
        #x0000000000000001
        #x0000000000000000)))
(assert (= var1057844 (ite (= var1057843 #x0000000000000001) var1057842 temp128731_59)))
(assert (= var1057840 var1057844))
(assert (= var730076 var1057840))
(assert (= temp128731_63 #x0000000000040000))
(assert (= var1123378 temp128731_63))
(assert (= temp128731_64 #x0000000000000001))
(assert (= var1123379
   (ite (bvslt temp128731_57 temp128731_64)
        #x0000000000000001
        #x0000000000000000)))
(assert (= var1123380 (ite (= var1123379 #x0000000000000001) var1123378 temp128731_57)))
(assert (= var1123376 var1123380))
(assert (= var730083 var1123376))
(assert (= temp128731_65 #x0000000000200000))
(assert (= var1188914 temp128731_65))
(assert (= temp128731_66 #x0000000000000001))
(assert (= var1188915
   (ite (bvslt temp128731_55 temp128731_66)
        #x0000000000000001
        #x0000000000000000)))
(assert (= var1188916 (ite (= var1188915 #x0000000000000001) var1188914 temp128731_55)))
(assert (= var1188912 var1188916))
(assert (= var730088 var1188912))
(assert (= var78095 var730088))
(assert (= temp128731_67 #x0000000000000003))
(assert (= temp128731_68 #x0000000000000001))
(assert (= var78184 temp128731_68))
(model-add temp128731_1 () (_ BitVec 64) #x0000000000000005)
(model-add temp128731_2 () (_ BitVec 64) #x0000000000000001)
(model-add var77740 () (_ BitVec 64) #x0000000000000001)
(model-del k!0)
(model-add ARGNAME_filter_NAMEEND_DIM
           ()
           (_ BitVec 64)
           (ite k!0 #x0000000000000005 (bvnot #x0000000000000005)))


